{'code': [14, 0, 19, 5, 12, 2, 1, 16, 16, 10, 18, 6, 13, 19, 15, 3, 8, 11, 15, 1, 10, 19, 1, 6, 8, 1
3, 13, 4, 19, 9, 8, 2, 4, 11, 0, 2, 15, 3, 0, 15, 4, 8, 7, 17, 17, 19, 4, 0, 6, 18, 17, 10, 15, 15, 
12, 10, 13, 14, 16, 17, 14, 18, 6, 10, 14, 14, 4, 3, 14, 5, 0, 13, 16, 15, 19, 3, 7, 6, 16, 4, 8, 3,
 9, 10, 11, 3, 2, 14, 10, 9, 5, 7, 18, 9, 7, 11, 4, 13, 0, 1, 3, 3, 4, 7, 16, 12, 0, 14, 4, 2, 18, 1
1, 18, 0, 12, 18, 8, 11, 0, 7, 5, 11, 19, 18, 17, 14, 8, 6, 18, 10, 2, 15, 9, 17, 19, 4, 18, 12, 9, 
10, 2, 8, 1, 12, 16, 9, 17, 13, 17, 16, 7, 1, 14, 2, 14, 12, 14, 7, 5, 19, 1, 17, 18, 2, 13, 5, 16, 
18, 11, 11, 0, 3, 12, 2, 19, 12, 9, 1, 15, 1, 7, 1, 10, 3, 5, 7, 13, 6, 1, 4, 6, 6, 12, 5, 8, 4, 9, 
8, 8, 15, 7, 15, 6, 7, 16, 9, 11, 5, 15, 4, 15, 7, 6, 0, 6, 6, 9, 1, 16, 13, 18, 17, 2, 3, 0, 17, 19
, 5, 16, 16, 5, 4, 19, 12, 9, 15, 11, 1, 19, 6], 'route': None, 'mac': [[5, 5, 1, 8, 6, 0, 7, 2, 9, 
9, 3, 0], [6, 7, 5, 0, 2, 3, 12, 2, 7, 3, 2, 9, 1], [2, 0, 6, 5, 0, 9, 8, 7, 9, 6, 1], [3, 2, 4, 1, 
9, 6, 2, 9, 1, 3, 8], [6, 8, 6, 5, 2, 0, 12, 1, 7, 8, 0, 0, 4, 8], [8, 0, 7, 1, 6, 5, 6, 1, 6, 12, 4
], [1, 6, 0, 9, 8, 8, 6, 7, 5, 4, 3, 4, 4, 0], [8, 9, 9, 1, 9, 0, 12, 3, 3, 0, 1, 2, 7], [5, 3, 7, 9
, 4, 1, 5, 2, 0, 5, 0], [9, 4, 1, 8, 3, 0, 9, 2, 1, 2, 3, 7], [9, 6, 6, 9, 4, 0, 1, 1, 7, 2], [5, 4,
 8, 3, 4, 1, 6, 1, 0, 9, 0], [3, 1, 3, 6, 8, 2, 5, 5, 2, 8, 1], [1, 7, 0, 5, 12, 4, 9, 2, 7, 6], [8,
 4, 8, 3, 7, 3, 6, 5, 9, 6, 5, 4], [5, 4, 1, 3, 1, 12, 7, 8, 4, 5, 8, 1, 8, 5], [3, 9, 1, 6, 9, 9, 8
, 0, 1, 6, 2, 1, 2], [3, 0, 1, 5, 1, 1, 3, 1, 8, 1, 3], [1, 5, 7, 0, 2, 4, 2, 8, 5, 0, 3, 12, 9], [2
, 8, 12, 1, 9, 4, 9, 7, 6, 3, 3, 2, 6]], 'wok': None}
